NAME: COORDINATES_MAP
TYPE: TSP
COMMENT: NONE
DIMENSION: 18
EDGE_WEIGHT_TYPE: GEO
NODE_COORD_SECTION
   1B  0.0         397.00
   2A  47.47       504.44
   3C  101.09      415.54
   4E  199.00      388.00
   5H  276.00      283.00
   6F  190.00      237.00
   7I  345.00      213.00
   8D  110.00      291.00
   9G  199.00      174.00
   10J 217.00      0.0
   11O 879.00      324.00
   12L 682.00      306.00
   13K 625.00      154.00
   14Q 778.00      145.00
   15R 745.00      35.00
   16P 851.00      105.00
   17N 808.00      560.00 
   18M 745.00      433.00
EOF